QBPP_HJ*_30_025_10_2
30 120 19
34 7 6 3 33 18 19 49 33 6 12 21 15 31 16 8 10 24 33 5 9 20 3 10 8 39 43 30 21 34
    0    0    0    0    0   -1    0   28    0    0  -21    0    0    0    0    0    0    0    0    0    6    0   13  -24    0   27    0    0    0  -34
    0    0    0    0    7    0   34    0    0    0   11    0    0    0    0    0   27    0    0    0    0    0  -50    0  -40    0  -22    0    0    0
    0    0    0  -37    0    0    0    0    0    0    0    0    0  -43    0    0    0   -6    0    0   21   15    0    0    0    0  -23   -9    0   45
    0    0  -37    0    0   -6    0   16    0   42    0  -14   13    0    0    0    0    0  -22   13    0   33   44    0    0   25    0    0   18    0
    0    7    0    0    0    0   -4    0    0   41    0    0    0    0    0  -25    0    0    0    0   33   30    0    0    0    0    0    0    2    0
   -1    0    0   -6    0    0    0    0   46    0    0    0    0    0    0    9    0    0    0    0    0  -34    0    0    0    0    0    0    0    0
    0   34    0    0   -4    0    0    0    0    0    0  -17    0    0    0    0    0    0    0    0    0   39    0    0  -37   16    0   42    0    0
   28    0    0   16    0    0    0    0    0    0    0   22  -33    0    0    0    0    0    0    0    0    0    0   37    0    0    0    0    0  -32
    0    0    0    0    0   46    0    0    0   20    0  -19    0    0   -1    0    0    0    5  -47    0    0    7    0   16  -23    0  -31    0   42
    0    0    0   42   41    0    0    0   20    0    0    0    0    0    0   27    0   21    0    0    0    0    0    0    0    0    0    0    0   37
  -21   11    0    0    0    0    0    0    0    0    0    0    0  -40    0    0   43    0    0    0  -15    0    0    0   50    0    0   15    0    0
    0    0    0  -14    0    0  -17   22  -19    0    0    0    0    0    0    0    0    0    0    0  -13    0   -5    0    0    0    0   22    0    0
    0    0    0   13    0    0    0  -33    0    0    0    0    0    6    0    0    0    0    0  -46    0    0    0    0    0    0  -37    0    3    0
    0    0  -43    0    0    0    0    0    0    0  -40    0    6    0    0   45    0   20    0   19    0    0   -9    0    0   15    0    0    0    0
    0    0    0    0    0    0    0    0   -1    0    0    0    0    0    0    0    0   35   -2    0   36    0    0    0    0    0    8    0    0    2
    0    0    0    0  -25    9    0    0    0   27    0    0    0   45    0    0    0  -18    0    0    0    0   21    0    0    0    0    0    0   37
    0   27    0    0    0    0    0    0    0    0   43    0    0    0    0    0    0   26    0   42  -45  -10    0  -14    0    0    0    0    0    0
    0    0   -6    0    0    0    0    0    0   21    0    0    0   20   35  -18   26    0    0    0    0    0    0    0    0    0    0    0    5    0
    0    0    0  -22    0    0    0    0    5    0    0    0    0    0   -2    0    0    0    0  -44    0    0    0    0    0    0    0    0    7    0
    0    0    0   13    0    0    0    0  -47    0    0    0  -46   19    0    0   42    0  -44    0    0    0    0    0    0    0    0    0  -23    0
    6    0   21    0   33    0    0    0    0    0  -15  -13    0    0   36    0  -45    0    0    0    0    0  -44    0    0    0    0    0    0    0
    0    0   15   33   30  -34   39    0    0    0    0    0    0    0    0    0  -10    0    0    0    0    0   25    0  -48  -45    0    0    0    0
   13  -50    0   44    0    0    0    0    7    0    0   -5    0   -9    0   21    0    0    0    0  -44   25    0    0    0    0    0  -36    0   15
  -24    0    0    0    0    0    0   37    0    0    0    0    0    0    0    0  -14    0    0    0    0    0    0    0   43    0    6    0    0    0
    0  -40    0    0    0    0  -37    0   16    0   50    0    0    0    0    0    0    0    0    0    0  -48    0   43    0    0    0    0    0    0
   27    0    0   25    0    0   16    0  -23    0    0    0    0   15    0    0    0    0    0    0    0  -45    0    0    0    0    0   43   33    0
    0  -22  -23    0    0    0    0    0    0    0    0    0  -37    0    8    0    0    0    0    0    0    0    0    6    0    0    0    0   -7    0
    0    0   -9    0    0    0   42    0  -31    0   15   22    0    0    0    0    0    0    0    0    0    0  -36    0    0   43    0    0    0    0
    0    0    0   18    2    0    0    0    0    0    0    0    3    0    0    0    0    5    7  -23    0    0    0    0    0   33   -7    0    0    0
  -34    0   45    0    0    0    0  -32   42   37    0    0    0    0    2   37    0    0    0    0    0    0   15    0    0    0    0    0    0    0
